c Result of efficient AIG-to-CNF conversion using package CNF
p cnf 614 2215
2 3 -522 0
2 3 -4 0
2 3 -452 0
-2 -3 0
-2 4 452 522 0
-3 582 583 584 585 0
3 -585 0
3 -584 0
3 -582 0
3 -583 0
-4 5 319 358 0
-4 5 -338 358 0
4 -358 0
4 -5 0
4 -319 338 0
-5 -6 188 0
-5 17 188 0
-5 -169 188 0
5 -188 0
5 6 -17 169 0
-6 7 8 11 14 0
6 -14 0
6 -7 0
6 -11 0
6 -8 0
-7 606 607 608 0
7 -606 0
7 -608 0
7 -607 0
-8 590 591 9 10 0
8 -590 0
8 -10 0
8 -9 0
8 -591 0
-9 594 595 0
9 -594 0
9 -595 0
-10 598 599 0
10 -598 0
10 -599 0
-11 596 597 12 13 0
11 -596 0
11 -13 0
11 -12 0
11 -597 0
-12 588 589 0
12 -588 0
12 -589 0
-13 592 593 0
13 -592 0
13 -593 0
-14 586 587 15 16 0
14 -586 0
14 -16 0
14 -15 0
14 -587 0
-15 604 605 0
15 -604 0
15 -605 0
-16 600 601 602 603 0
16 -603 0
16 -602 0
16 -600 0
16 -601 0
-17 609 18 0
-17 -609 158 0
17 -609 -158 0
17 609 -18 0
-18 -610 118 0
-18 610 19 0
18 610 -19 0
18 -610 -118 0
19 611 -20 0
19 -611 -98 0
-19 -611 98 0
-19 611 20 0
20 612 -21 0
20 -612 -74 0
-20 -612 74 0
-20 612 21 0
21 -613 -55 0
21 613 -22 0
-21 613 22 0
-21 -613 55 0
-22 567 23 0
22 -567 0
22 -23 0
23 577 -24 39 0
23 -577 39 -52 0
-23 -39 0
-23 -577 52 0
-23 577 24 0
24 578 -25 0
24 -578 -32 0
-24 -578 32 0
-24 578 25 0
25 579 -26 0
25 -579 -29 0
-25 -579 29 0
-25 579 26 0
26 580 -27 0
26 -580 -28 0
-26 -580 28 0
-26 580 27 0
27 -581 -598 0
27 581 -599 0
-27 581 599 0
-27 -581 598 0
28 -581 -596 0
28 581 -597 0
-28 581 597 0
-28 -581 596 0
29 580 -30 0
29 -580 -31 0
-29 -580 31 0
-29 580 30 0
30 -581 -594 0
30 581 -595 0
-30 581 595 0
-30 -581 594 0
31 -581 -592 0
31 581 -593 0
-31 581 593 0
-31 -581 592 0
32 579 -33 0
32 -579 -36 0
-32 -579 36 0
-32 579 33 0
33 580 -34 0
33 -580 -35 0
-33 -580 35 0
-33 580 34 0
34 -581 -590 0
34 581 -591 0
-34 581 591 0
-34 -581 590 0
35 -581 -588 0
35 581 -589 0
-35 581 589 0
-35 -581 588 0
36 580 -37 0
36 -580 -38 0
-36 -580 38 0
-36 580 37 0
37 -581 -586 0
37 581 -587 0
-37 581 587 0
-37 -581 586 0
38 -581 -584 0
38 581 -585 0
-38 581 585 0
-38 -581 584 0
-39 40 46 51 0
39 -40 0
39 -46 0
39 -51 0
-40 41 42 0
40 -41 0
40 -42 0
-41 563 564 565 566 0
41 -566 0
41 -565 0
41 -563 0
41 -564 0
-42 43 44 0
42 -43 0
42 -44 0
-43 572 573 574 575 0
43 -575 0
43 -574 0
43 -572 0
43 -573 0
-44 570 571 576 45 0
44 -45 0
44 -576 0
44 -570 0
44 -571 0
-45 567 568 569 0
45 -567 0
45 -569 0
45 -568 0
-46 557 558 47 0
46 -47 0
46 -558 0
46 -557 0
-47 556 48 0
47 -556 0
47 -48 0
-48 555 49 0
48 -555 0
48 -49 0
-49 554 50 0
49 -554 0
49 -50 0
-50 550 551 552 553 0
50 -553 0
50 -552 0
50 -550 0
50 -551 0
-51 559 560 561 562 0
51 -562 0
51 -561 0
51 -559 0
51 -560 0
52 578 -53 0
-52 -578 0
-52 53 0
53 579 -54 0
-53 -579 0
-53 54 0
54 580 581 -583 0
54 580 -581 -582 0
-54 -580 0
-54 -581 582 0
-54 581 583 0
-55 566 -39 0
-55 566 64 0
-55 566 -56 0
55 -566 0
55 39 56 -64 0
56 -578 57 0
-56 578 0
-56 -57 0
57 579 -58 0
57 -579 -61 0
-57 -579 61 0
-57 579 58 0
58 580 -59 0
58 -580 -60 0
-58 -580 60 0
-58 580 59 0
59 -581 -589 0
59 581 -590 0
-59 581 590 0
-59 -581 589 0
60 -581 -587 0
60 581 -588 0
-60 581 588 0
-60 -581 587 0
61 580 -62 0
61 -580 -63 0
-61 -580 63 0
-61 580 62 0
62 -581 -585 0
62 581 -586 0
-62 581 586 0
-62 -581 585 0
63 -581 -583 0
63 581 -584 0
-63 581 584 0
-63 -581 583 0
64 577 -67 0
64 -577 -65 0
64 577 -578 0
-64 -577 65 0
-64 577 578 67 0
65 578 -66 0
-65 -578 0
-65 66 0
66 579 580 581 -582 0
-66 582 0
-66 -581 0
-66 -579 0
-66 -580 0
67 579 -68 0
67 -579 -71 0
-67 -579 71 0
-67 579 68 0
68 580 -69 0
68 -580 -70 0
-68 -580 70 0
-68 580 69 0
69 -581 -597 0
69 581 -598 0
-69 581 598 0
-69 -581 597 0
70 -581 -595 0
70 581 -596 0
-70 581 596 0
-70 -581 595 0
71 580 -72 0
71 -580 -73 0
-71 -580 73 0
-71 580 72 0
72 -581 -593 0
72 581 -594 0
-72 581 594 0
-72 -581 593 0
73 -581 -591 0
73 581 -592 0
-73 581 592 0
-73 -581 591 0
74 -613 -90 0
74 613 -75 0
-74 613 75 0
-74 -613 90 0
-75 565 82 0
-75 565 -76 0
75 -565 0
75 76 -82 0
-76 565 566 46 77 0
76 -565 0
76 -77 0
76 -46 0
76 -566 0
-77 78 51 79 80 0
77 -80 0
77 -78 0
77 -79 0
77 -51 0
-78 563 564 0
78 -563 0
78 -564 0
-79 567 568 571 576 0
79 -576 0
79 -571 0
79 -567 0
79 -568 0
-80 569 570 81 0
80 -81 0
80 -570 0
80 -569 0
-81 577 43 0
81 -577 0
81 -43 0
82 578 -83 0
82 -578 -86 0
-82 -578 86 0
-82 578 83 0
83 579 -84 0
83 -579 -85 0
-83 -579 85 0
-83 579 84 0
84 580 -28 0
84 -580 -30 0
-84 -580 30 0
-84 580 28 0
85 580 -31 0
85 -580 -34 0
-85 -580 34 0
-85 580 31 0
86 579 -87 0
86 -579 -88 0
-86 -579 88 0
-86 579 87 0
87 580 -35 0
87 -580 -37 0
-87 -580 37 0
-87 580 35 0
88 580 -38 0
88 -580 -89 0
-88 -580 89 0
-88 580 38 0
89 -581 -582 0
89 581 -583 0
-89 581 583 0
-89 -581 582 0
-90 564 91 0
-90 564 -76 0
90 -564 0
90 76 -91 0
91 578 -92 0
91 -578 -95 0
-91 -578 95 0
-91 578 92 0
92 579 -93 0
92 -579 -94 0
-92 -579 94 0
-92 579 93 0
93 580 -70 0
93 -580 -72 0
-93 -580 72 0
-93 580 70 0
94 -580 -59 0
94 580 -73 0
-94 580 73 0
-94 -580 59 0
95 579 -96 0
95 -579 -97 0
-95 -579 97 0
-95 579 96 0
96 580 -60 0
96 -580 -62 0
-96 -580 62 0
-96 580 60 0
97 580 -63 0
97 -580 581 -582 0
-97 -580 -581 0
-97 580 63 0
-97 -580 582 0
98 612 -99 0
98 -612 -109 0
-98 -612 109 0
-98 612 99 0
99 -613 -104 0
99 613 -100 0
-99 613 100 0
-99 -613 104 0
-100 563 101 0
-100 563 -76 0
100 -563 0
100 76 -101 0
101 578 -102 0
101 -578 -103 0
-101 -578 103 0
-101 578 102 0
102 579 -29 0
102 -579 -33 0
-102 -579 33 0
-102 579 29 0
103 579 -36 0
103 -579 -54 0
-103 -579 54 0
-103 579 36 0
-104 562 105 0
-104 562 -76 0
104 -562 0
104 76 -105 0
105 578 -106 0
105 -578 -107 0
-105 -578 107 0
-105 578 106 0
106 -579 -58 0
106 579 -71 0
-106 579 71 0
-106 -579 58 0
107 579 -61 0
107 -579 -108 0
-107 -579 108 0
-107 579 61 0
108 580 581 -582 0
-108 582 0
-108 -581 0
-108 -580 0
109 -613 -114 0
109 613 -110 0
-109 613 110 0
-109 -613 114 0
-110 561 -76 0
-110 561 111 0
110 -561 0
110 76 -111 0
-111 578 113 0
-111 -578 112 0
111 -578 -112 0
111 578 -113 0
112 579 -88 0
-112 -579 0
-112 88 0
113 579 -85 0
113 -579 -87 0
-113 -579 87 0
-113 579 85 0
-114 560 115 0
-114 560 -76 0
114 -560 0
114 76 -115 0
115 578 -116 0
115 -578 -117 0
-115 -578 117 0
-115 578 116 0
116 579 -94 0
116 -579 -96 0
-116 -579 96 0
-116 579 94 0
117 579 -97 0
-117 -579 0
-117 97 0
118 611 -119 0
118 -611 -140 0
-118 -611 140 0
-118 611 119 0
119 612 -120 0
119 -612 -131 0
-119 -612 131 0
-119 612 120 0
120 -613 -123 0
120 613 -121 0
-120 613 121 0
-120 -613 123 0
-121 559 122 0
-121 559 -76 0
121 -559 0
121 76 -122 0
122 578 -32 0
122 -578 -53 0
-122 -578 53 0
-122 578 32 0
-123 558 -125 0
-123 558 -124 0
-123 558 126 0
123 -558 0
123 124 125 -126 0
-124 559 560 0
124 -559 0
124 -560 0
-125 79 80 0
125 -79 0
125 -80 0
126 46 127 -130 0
-126 -46 0
-126 -127 0
-126 130 0
-127 563 564 128 129 0
127 -563 0
127 -129 0
127 -128 0
127 -564 0
-128 565 566 0
128 -565 0
128 -566 0
-129 561 562 0
129 -561 0
129 -562 0
130 578 -57 0
130 -578 -66 0
-130 -578 66 0
-130 578 57 0
131 -613 -137 0
131 613 -132 0
-131 613 132 0
-131 -613 137 0
-132 557 -127 0
-132 557 -47 0
-132 557 133 0
132 -557 0
132 47 127 -133 0
133 42 134 -136 0
-133 -42 0
-133 -134 0
-133 136 0
-134 577 135 0
134 -577 0
134 -135 0
-135 558 559 560 0
135 -558 0
135 -560 0
135 -559 0
136 578 -86 0
-136 -578 0
-136 86 0
-137 556 -134 0
-137 556 -40 0
-137 556 138 0
137 -556 0
137 40 134 -138 0
138 557 48 129 -139 0
-138 -557 0
-138 139 0
-138 -129 0
-138 -48 0
139 578 -95 0
-139 -578 0
-139 95 0
140 612 -141 0
140 -612 -152 0
-140 -612 152 0
-140 612 141 0
141 -613 -148 0
141 613 -142 0
-141 613 142 0
-141 -613 148 0
-142 555 -143 0
-142 555 -44 0
-142 555 145 0
142 -555 0
142 44 143 -145 0
-143 81 144 0
143 -81 0
143 -144 0
-144 557 564 565 566 0
144 -566 0
144 -565 0
144 -557 0
144 -564 0
145 556 49 146 -147 0
-145 -556 0
-145 147 0
-145 -146 0
-145 -49 0
-146 561 562 563 135 0
146 -135 0
146 -563 0
146 -561 0
146 -562 0
147 578 -103 0
-147 -578 0
-147 103 0
-148 554 149 0
-148 554 -50 0
-148 554 -150 0
148 -554 0
148 50 -149 150 0
149 578 -107 0
-149 -578 0
-149 107 0
-150 577 42 151 0
150 -151 0
150 -42 0
150 -577 0
-151 555 556 144 146 0
151 -555 0
151 -146 0
151 -144 0
151 -556 0
152 -613 -155 0
152 613 -153 0
-152 613 153 0
-152 -613 155 0
-153 553 154 0
-153 553 -76 0
153 -553 0
153 76 -154 0
154 578 -112 0
-154 -578 0
-154 112 0
-155 552 -125 0
-155 552 -49 0
-155 552 156 0
155 -552 0
155 49 125 -156 0
156 151 -157 0
-156 -151 0
-156 157 0
157 578 -117 0
-157 -578 0
-157 117 0
158 610 -159 0
-158 -610 0
-158 159 0
159 611 -160 0
-159 -611 0
-159 160 0
160 612 -161 0
-160 -612 0
-160 161 0
161 -613 -168 0
161 613 -162 0
-161 613 162 0
-161 -613 168 0
-162 551 -163 0
-162 -550 551 0
-162 551 52 0
162 -551 0
162 550 -52 163 0
-163 41 164 165 166 0
163 -166 0
163 -41 0
163 -165 0
163 -164 0
-164 551 552 553 0
164 -551 0
164 -553 0
164 -552 0
-165 555 556 0
165 -555 0
165 -556 0
-166 554 125 135 167 0
166 -554 0
166 -167 0
166 -135 0
166 -125 0
-167 557 561 562 0
167 -557 0
167 -562 0
167 -561 0
-168 550 -163 0
-168 550 65 0
168 -550 0
168 -65 163 0
-169 609 170 0
-169 -609 185 0
169 -609 -185 0
169 609 -170 0
-170 610 178 0
-170 -610 171 0
170 -610 -171 0
170 610 -178 0
171 611 -172 0
171 -611 -175 0
-171 -611 175 0
-171 611 172 0
172 612 -173 0
172 -612 -174 0
-172 -612 174 0
-172 612 173 0
173 -559 613 0
173 -558 -613 0
-173 559 613 0
-173 558 -613 0
174 -557 613 0
174 -556 -613 0
-174 557 613 0
-174 556 -613 0
175 612 -176 0
175 -612 -177 0
-175 -612 177 0
-175 612 176 0
176 -555 613 0
176 -554 -613 0
-176 555 613 0
-176 554 -613 0
177 -553 613 0
177 -552 -613 0
-177 553 613 0
-177 552 -613 0
178 611 -179 0
178 -611 -182 0
-178 -611 182 0
-178 611 179 0
179 612 -180 0
179 -612 -181 0
-179 -612 181 0
-179 612 180 0
180 -567 613 0
180 -566 -613 0
-180 567 613 0
-180 566 -613 0
181 -565 613 0
181 -564 -613 0
-181 565 613 0
-181 564 -613 0
182 612 -183 0
182 -612 -184 0
-182 -612 184 0
-182 612 183 0
183 -563 613 0
183 -562 -613 0
-183 563 613 0
-183 562 -613 0
184 -561 613 0
184 -560 -613 0
-184 561 613 0
-184 560 -613 0
185 610 -186 0
-185 -610 0
-185 186 0
186 611 -187 0
-186 -611 0
-186 187 0
187 -550 612 -613 0
187 -551 612 613 0
-187 -612 0
-187 550 -613 0
-187 551 613 0
-188 189 -316 0
-188 189 313 0
-188 -6 189 0
188 -189 0
188 6 -313 316 0
189 6 -190 269 284 0
-189 -284 0
-189 -269 0
-189 -6 0
-189 190 0
-190 609 -610 252 0
-190 609 610 191 0
190 -609 0
190 -610 -252 0
190 610 -191 0
191 611 -192 0
191 -611 -232 0
-191 -611 232 0
-191 611 192 0
192 612 -193 0
192 -612 -215 0
-192 -612 215 0
-192 612 193 0
193 -613 -203 0
193 613 -194 0
-193 613 194 0
-193 -613 203 0
-194 578 195 0
194 -578 0
194 -195 0
195 577 39 -196 0
195 -577 39 -105 0
-195 -39 0
-195 -577 105 0
-195 577 196 0
196 -579 -197 0
196 579 -200 0
-196 -579 197 0
-196 579 200 0
197 580 -198 0
197 -580 -199 0
-197 -580 199 0
-197 580 198 0
198 -581 -605 0
198 581 -606 0
-198 581 606 0
-198 -581 605 0
199 -581 -603 0
199 581 -604 0
-199 581 604 0
-199 -581 603 0
-200 580 202 0
-200 -580 201 0
200 -580 -201 0
200 580 -202 0
201 -581 -607 0
201 581 -608 0
-201 581 608 0
-201 -581 607 0
202 -581 -609 0
202 581 -610 0
-202 581 610 0
-202 -581 609 0
-203 577 -39 0
-203 577 204 0
203 -577 0
203 39 -204 0
-204 578 205 0
-204 -578 212 0
204 -578 -212 0
204 578 -205 0
-205 579 209 0
-205 -579 206 0
205 -579 -206 0
205 579 -209 0
206 580 -207 0
206 -580 -208 0
-206 -580 208 0
-206 580 207 0
207 -581 -604 0
207 581 -605 0
-207 581 605 0
-207 -581 604 0
208 -581 -602 0
208 581 -603 0
-208 581 603 0
-208 -581 602 0
209 580 -210 0
209 -580 -211 0
-209 -580 211 0
-209 580 210 0
210 -581 -608 0
210 581 -609 0
-210 581 609 0
-210 -581 608 0
211 -581 -606 0
211 581 -607 0
-211 581 607 0
-211 -581 606 0
212 -579 -84 0
212 579 -213 0
-212 579 213 0
-212 -579 84 0
213 -580 -27 0
213 580 -214 0
-213 580 214 0
-213 -580 27 0
214 -581 -600 0
214 581 -601 0
-214 581 601 0
-214 -581 600 0
215 -613 -226 0
215 613 -216 0
-215 613 216 0
-215 -613 226 0
-216 576 217 0
216 -576 0
216 -217 0
217 577 39 -218 0
217 -577 39 -115 0
-217 -39 0
-217 -577 115 0
-217 577 218 0
218 578 -219 0
218 -578 -223 0
-218 -578 223 0
-218 578 219 0
219 579 -220 0
219 -579 -221 0
-219 -579 221 0
-219 579 220 0
220 -580 -198 0
220 580 -201 0
-220 580 201 0
-220 -580 198 0
221 580 -199 0
221 -580 -222 0
-221 -580 222 0
-221 580 199 0
222 -581 -601 0
222 581 -602 0
-222 581 602 0
-222 -581 601 0
223 -579 -93 0
223 579 -224 0
-223 579 224 0
-223 -579 93 0
224 -580 -69 0
224 580 -225 0
-224 580 225 0
-224 -580 69 0
225 -581 -599 0
225 581 -600 0
-225 581 600 0
-225 -581 599 0
-226 575 227 0
226 -575 0
226 -227 0
227 577 39 -228 0
227 -577 39 -122 0
-227 -39 0
-227 -577 122 0
-227 577 228 0
228 -578 -25 0
228 578 -229 0
-228 578 229 0
-228 -578 25 0
229 579 -230 0
229 -579 -231 0
-229 -579 231 0
-229 579 230 0
230 -580 -207 0
230 580 -211 0
-230 580 211 0
-230 -580 207 0
231 580 -208 0
231 -580 -214 0
-231 -580 214 0
-231 580 208 0
232 612 -233 0
232 -612 -243 0
-232 -612 243 0
-232 612 233 0
233 -613 -239 0
233 613 -234 0
-233 613 234 0
-233 -613 239 0
-234 574 235 0
234 -574 0
234 -235 0
235 577 39 -236 0
235 -577 39 -130 0
-235 -39 0
-235 -577 130 0
-235 577 236 0
236 -578 -67 0
236 578 -237 0
-236 578 237 0
-236 -578 67 0
237 579 -197 0
237 -579 -238 0
-237 -579 238 0
-237 579 197 0
238 580 -222 0
238 -580 -225 0
-238 -580 225 0
-238 580 222 0
-239 573 240 0
239 -573 0
239 -240 0
240 577 39 -241 0
240 -577 39 -136 0
-240 -39 0
-240 -577 136 0
-240 577 241 0
241 -578 -83 0
241 578 -242 0
-241 578 242 0
-241 -578 83 0
242 579 -206 0
242 -579 -213 0
-242 -579 213 0
-242 579 206 0
243 -613 -248 0
243 613 -244 0
-243 613 244 0
-243 -613 248 0
-244 572 245 0
244 -572 0
244 -245 0
245 577 39 -246 0
245 -577 39 -139 0
-245 -39 0
-245 -577 139 0
-245 577 246 0
246 -578 -92 0
246 578 -247 0
-246 578 247 0
-246 -578 92 0
247 579 -221 0
247 -579 -224 0
-247 -579 224 0
-247 579 221 0
-248 571 249 0
248 -571 0
248 -249 0
249 577 39 -250 0
249 -577 39 -147 0
-249 -39 0
-249 -577 147 0
-249 577 250 0
250 -578 -102 0
250 578 -251 0
-250 578 251 0
-250 -578 102 0
251 -579 -26 0
251 579 -231 0
-251 579 231 0
-251 -579 26 0
252 611 -253 0
252 -611 -266 0
-252 -611 266 0
-252 611 253 0
253 612 -254 0
253 -612 -262 0
-253 -612 262 0
-253 612 254 0
254 -613 -259 0
254 613 -255 0
-254 613 255 0
-254 -613 259 0
-255 570 256 0
255 -570 0
255 -256 0
256 577 39 -257 0
256 -577 39 -149 0
-256 -39 0
-256 -577 149 0
-256 577 257 0
257 -578 -106 0
257 578 -258 0
-257 578 258 0
-257 -578 106 0
258 -579 -68 0
258 579 -238 0
-258 579 238 0
-258 -579 68 0
-259 569 260 0
259 -569 0
259 -260 0
260 577 39 -261 0
260 -577 39 -154 0
-260 -39 0
-260 -577 154 0
-260 577 261 0
261 -578 -113 0
261 578 -212 0
-261 578 212 0
-261 -578 113 0
262 613 -263 0
262 -613 -22 0
-262 -613 22 0
-262 613 263 0
-263 568 264 0
263 -568 0
263 -264 0
264 577 39 -265 0
264 -577 39 -157 0
-264 -39 0
-264 -577 157 0
-264 577 265 0
265 -578 -116 0
265 578 -223 0
-265 578 223 0
-265 -578 116 0
266 612 -267 0
266 -612 -268 0
-266 -612 268 0
-266 612 267 0
267 -613 -75 0
267 613 -55 0
-267 613 55 0
-267 -613 75 0
268 -613 -100 0
268 613 -90 0
-268 613 90 0
-268 -613 100 0
269 -609 270 0
-269 609 0
-269 -270 0
270 610 -271 0
270 -610 -278 0
-270 -610 278 0
-270 610 271 0
271 611 -272 0
271 -611 -275 0
-271 -611 275 0
-271 611 272 0
272 612 -273 0
272 -612 -274 0
-272 -612 274 0
-272 612 273 0
273 -613 -110 0
273 613 -104 0
-273 613 104 0
-273 -613 110 0
274 -613 -121 0
274 613 -114 0
-274 613 114 0
-274 -613 121 0
275 612 -276 0
275 -612 -277 0
-275 -612 277 0
-275 612 276 0
276 -613 -132 0
276 613 -123 0
-276 613 123 0
-276 -613 132 0
277 -613 -142 0
277 613 -137 0
-277 613 137 0
-277 -613 142 0
278 611 -279 0
278 -611 -282 0
-278 -611 282 0
-278 611 279 0
279 612 -280 0
279 -612 -281 0
-279 -612 281 0
-279 612 280 0
280 -613 -153 0
280 613 -148 0
-280 613 148 0
-280 -613 153 0
281 -613 -162 0
281 613 -155 0
-281 613 155 0
-281 -613 162 0
282 612 -283 0
-282 -612 0
-282 283 0
283 613 -168 0
-283 -613 0
-283 168 0
-284 609 285 0
-284 -609 300 0
284 -609 -300 0
284 609 -285 0
-285 610 286 0
-285 -610 293 0
285 -610 -293 0
285 610 -286 0
-286 611 287 0
-286 -611 290 0
286 -611 -290 0
286 611 -287 0
-287 -612 289 0
-287 612 288 0
287 612 -288 0
287 -612 -289 0
288 -578 613 0
288 -577 -613 0
-288 578 613 0
-288 577 -613 0
289 -576 613 0
289 -575 -613 0
-289 576 613 0
-289 575 -613 0
290 612 -291 0
290 -612 -292 0
-290 -612 292 0
-290 612 291 0
291 -574 613 0
291 -573 -613 0
-291 574 613 0
-291 573 -613 0
292 -572 613 0
292 -571 -613 0
-292 572 613 0
-292 571 -613 0
293 611 -294 0
293 -611 -297 0
-293 -611 297 0
-293 611 294 0
294 612 -295 0
294 -612 -296 0
-294 -612 296 0
-294 612 295 0
295 -570 613 0
295 -569 -613 0
-295 570 613 0
-295 569 -613 0
296 -568 613 0
296 -567 -613 0
-296 568 613 0
-296 567 -613 0
297 612 -298 0
297 -612 -299 0
-297 -612 299 0
-297 612 298 0
298 -566 613 0
298 -565 -613 0
-298 566 613 0
-298 565 -613 0
299 -564 613 0
299 -563 -613 0
-299 564 613 0
-299 563 -613 0
300 610 -301 0
300 -610 -308 0
-300 -610 308 0
-300 610 301 0
301 611 -302 0
301 -611 -305 0
-301 -611 305 0
-301 611 302 0
302 612 -303 0
302 -612 -304 0
-302 -612 304 0
-302 612 303 0
303 -562 613 0
303 -561 -613 0
-303 562 613 0
-303 561 -613 0
304 -560 613 0
304 -559 -613 0
-304 560 613 0
-304 559 -613 0
305 612 -306 0
305 -612 -307 0
-305 -612 307 0
-305 612 306 0
306 -558 613 0
306 -557 -613 0
-306 558 613 0
-306 557 -613 0
307 -556 613 0
307 -555 -613 0
-307 556 613 0
-307 555 -613 0
308 611 -309 0
308 -611 -312 0
-308 -611 312 0
-308 611 309 0
309 612 -310 0
309 -612 -311 0
-309 -612 311 0
-309 612 310 0
310 -554 613 0
310 -553 -613 0
-310 554 613 0
-310 553 -613 0
311 -552 613 0
311 -551 -613 0
-311 552 613 0
-311 551 -613 0
312 -550 612 613 0
-312 550 0
-312 -613 0
-312 -612 0
-313 609 314 0
-313 -609 315 0
313 -609 -315 0
313 609 -314 0
-314 -610 271 0
-314 610 252 0
314 610 -252 0
314 -610 -271 0
315 610 -278 0
-315 -610 0
-315 278 0
-316 609 317 0
-316 -609 318 0
316 -609 -318 0
316 609 -317 0
-317 -610 301 0
-317 610 293 0
317 610 -293 0
317 -610 -301 0
318 610 -308 0
-318 -610 0
-318 308 0
319 -609 6 -332 0
319 609 6 -320 0
-319 -6 0
-319 -609 332 0
-319 609 320 0
320 610 -321 0
320 -610 -328 0
-320 -610 328 0
-320 610 321 0
321 611 -322 0
321 -611 -325 0
-321 -611 325 0
-321 611 322 0
322 612 -323 0
322 -612 -324 0
-322 -612 324 0
-322 612 323 0
323 -613 -216 0
323 613 -203 0
-323 613 203 0
-323 -613 216 0
324 -613 -234 0
324 613 -226 0
-324 613 226 0
-324 -613 234 0
325 612 -326 0
325 -612 -327 0
-325 -612 327 0
-325 612 326 0
326 -613 -244 0
326 613 -239 0
-326 613 239 0
-326 -613 244 0
327 -613 -255 0
327 613 -248 0
-327 613 248 0
-327 -613 255 0
328 611 -329 0
328 -611 -331 0
-328 -611 331 0
-328 611 329 0
329 -612 -21 0
329 612 -330 0
-329 612 330 0
-329 -612 21 0
330 -613 -263 0
330 613 -259 0
-330 613 259 0
-330 -613 263 0
331 612 -74 0
331 -612 -99 0
-331 -612 99 0
-331 612 74 0
332 610 -333 0
332 -610 -336 0
-332 -610 336 0
-332 610 333 0
333 611 -334 0
333 -611 -335 0
-333 -611 335 0
-333 611 334 0
334 612 -109 0
334 -612 -120 0
-334 -612 120 0
-334 612 109 0
335 612 -131 0
335 -612 -141 0
-335 -612 141 0
-335 612 131 0
336 611 -337 0
-336 -611 0
-336 337 0
337 612 -152 0
337 -612 -161 0
-337 -612 161 0
-337 612 152 0
338 -609 6 -351 0
338 609 6 -339 0
-338 -6 0
-338 -609 351 0
-338 609 339 0
-339 610 340 0
-339 -610 347 0
339 -610 -347 0
339 610 -340 0
-340 611 344 0
-340 -611 341 0
340 -611 -341 0
340 611 -344 0
341 612 -342 0
341 -612 -343 0
-341 -612 343 0
-341 612 342 0
342 -573 613 0
342 -572 -613 0
-342 573 613 0
-342 572 -613 0
343 -571 613 0
343 -570 -613 0
-343 571 613 0
-343 570 -613 0
344 612 -345 0
344 -612 -346 0
-344 -612 346 0
-344 612 345 0
345 -577 613 0
345 -576 -613 0
-345 577 613 0
-345 576 -613 0
346 -575 613 0
346 -574 -613 0
-346 575 613 0
-346 574 -613 0
347 611 -348 0
347 -611 -350 0
-347 -611 350 0
-347 611 348 0
348 -612 -180 0
348 612 -349 0
-348 612 349 0
-348 -612 180 0
349 -569 613 0
349 -568 -613 0
-349 569 613 0
-349 568 -613 0
350 612 -181 0
350 -612 -183 0
-350 -612 183 0
-350 612 181 0
351 610 -352 0
351 -610 -355 0
-351 -610 355 0
-351 610 352 0
352 611 -353 0
352 -611 -354 0
-352 -611 354 0
-352 611 353 0
353 -612 -173 0
353 612 -184 0
-353 612 184 0
-353 -612 173 0
354 612 -174 0
354 -612 -176 0
-354 -612 176 0
-354 612 174 0
355 611 -356 0
-355 -611 0
-355 356 0
356 612 -177 0
356 -612 -357 0
-356 -612 357 0
-356 612 177 0
357 -551 613 0
357 -550 -613 0
-357 551 613 0
-357 550 -613 0
-358 359 387 415 0
-358 359 -406 415 0
358 -359 0
358 -415 0
358 -387 406 0
359 6 -360 372 376 0
-359 -376 0
-359 -372 0
-359 -6 0
-359 360 0
-360 609 -610 370 0
-360 609 610 361 0
360 -609 0
360 -610 -370 0
360 610 -361 0
361 611 -362 0
361 -611 -369 0
-361 -611 369 0
-361 611 362 0
362 -612 -323 0
362 612 -363 0
-362 612 363 0
-362 -612 323 0
363 613 -364 0
363 -613 -194 0
-363 -613 194 0
-363 613 364 0
-364 579 365 0
364 -579 0
364 -365 0
365 577 39 -366 0
365 -577 39 -101 0
-365 -39 0
-365 -577 101 0
-365 577 366 0
366 -578 -251 0
366 578 -367 0
-366 -578 251 0
-366 578 367 0
-367 580 368 0
-367 -580 210 0
367 -580 -210 0
367 580 -368 0
368 -581 -610 0
368 581 -611 0
-368 581 611 0
-368 -581 610 0
369 612 -324 0
369 -612 -326 0
-369 -612 326 0
-369 612 324 0
370 -611 -20 0
370 611 -371 0
-370 611 371 0
-370 -611 20 0
371 612 -327 0
371 -612 -330 0
-371 -612 330 0
-371 612 327 0
372 -609 373 0
-372 609 0
-372 -373 0
373 610 -374 0
373 -610 -375 0
-373 -610 375 0
-373 610 374 0
374 611 -98 0
374 -611 -119 0
-374 -611 119 0
-374 611 98 0
375 611 -140 0
375 -611 -160 0
-375 -611 160 0
-375 611 140 0
-376 609 377 0
-376 -609 384 0
376 -609 -384 0
376 609 -377 0
-377 610 378 0
-377 -610 382 0
377 -610 -382 0
377 610 -378 0
-378 611 379 0
-378 -611 381 0
378 -611 -381 0
378 611 -379 0
-379 612 380 0
-379 -612 345 0
379 -612 -345 0
379 612 -380 0
380 -579 613 0
380 -578 -613 0
-380 579 613 0
-380 578 -613 0
381 -612 -342 0
381 612 -346 0
-381 612 346 0
-381 -612 342 0
382 -611 -179 0
382 611 -383 0
-382 611 383 0
-382 -611 179 0
383 612 -343 0
383 -612 -349 0
-383 -612 349 0
-383 612 343 0
384 610 -385 0
384 -610 -386 0
-384 -610 386 0
-384 610 385 0
385 -611 -172 0
385 611 -182 0
-385 611 182 0
-385 -611 172 0
386 611 -175 0
386 -611 -187 0
-386 -611 187 0
-386 611 175 0
387 -609 6 -403 0
387 609 6 -388 0
-387 -6 0
-387 -609 403 0
-387 609 388 0
388 610 -389 0
388 -610 -402 0
-388 -610 402 0
-388 610 389 0
389 -611 -322 0
389 611 -390 0
-389 611 390 0
-389 -611 322 0
390 -612 -363 0
390 612 -391 0
-390 612 391 0
-390 -612 363 0
391 -613 -392 0
391 -581 613 0
391 613 -397 0
-391 -613 392 0
-391 581 613 397 0
-392 580 393 0
392 -580 0
392 -393 0
393 577 39 -394 0
393 -577 39 -91 0
-393 -39 0
-393 -577 91 0
-393 577 394 0
394 -578 -247 0
394 578 -395 0
-394 -578 247 0
-394 578 395 0
-395 579 396 0
-395 -579 220 0
395 -579 -220 0
395 579 -396 0
396 -581 -611 0
396 581 -612 0
-396 581 612 0
-396 -581 611 0
397 577 39 -398 0
397 -577 39 -82 0
-397 -39 0
-397 577 398 0
-397 -577 82 0
-398 578 399 0
-398 -578 242 0
398 -578 -242 0
398 578 -399 0
399 -579 -209 0
399 579 -400 0
-399 579 400 0
-399 -579 209 0
400 -580 -368 0
400 580 -401 0
-400 580 401 0
-400 -580 368 0
401 -581 -612 0
401 581 -613 0
-401 581 613 0
-401 -581 612 0
402 611 -325 0
402 -611 -329 0
-402 -611 329 0
-402 611 325 0
403 610 -404 0
403 -610 -405 0
-403 -610 405 0
-403 610 404 0
404 611 -331 0
404 -611 -334 0
-404 -611 334 0
-404 611 331 0
405 611 -335 0
405 -611 -337 0
-405 -611 337 0
-405 611 335 0
406 -609 6 -412 0
406 609 6 -407 0
-406 -6 0
-406 -609 412 0
-406 609 407 0
-407 610 408 0
-407 -610 411 0
407 -610 -411 0
407 610 -408 0
-408 -611 344 0
-408 611 409 0
408 -611 -344 0
408 611 -409 0
-409 612 410 0
-409 -612 380 0
409 -612 -380 0
409 612 -410 0
410 -581 613 0
410 -580 -613 0
-410 581 613 0
-410 580 -613 0
411 611 -341 0
411 -611 -348 0
-411 -611 348 0
-411 611 341 0
412 610 -413 0
412 -610 -414 0
-412 -610 414 0
-412 610 413 0
413 611 -350 0
413 -611 -353 0
-413 -611 353 0
-413 611 350 0
414 611 -354 0
414 -611 -356 0
-414 -611 356 0
-414 611 354 0
-415 -6 438 0
-415 416 438 0
-415 -427 438 0
415 -438 0
415 6 -416 427 0
-416 609 417 0
-416 -609 424 0
416 -609 -424 0
416 609 -417 0
-417 -610 421 0
-417 610 418 0
417 610 -418 0
417 -610 -421 0
418 611 -419 0
418 -611 -420 0
-418 -611 420 0
-418 611 419 0
419 612 -262 0
419 -612 -267 0
-419 -612 267 0
-419 612 262 0
420 612 -268 0
420 -612 -273 0
-420 -612 273 0
-420 612 268 0
421 611 -422 0
421 -611 -423 0
-421 -611 423 0
-421 611 422 0
422 612 -274 0
422 -612 -276 0
-422 -612 276 0
-422 612 274 0
423 612 -277 0
423 -612 -280 0
-423 -612 280 0
-423 612 277 0
424 610 -425 0
-424 -610 0
-424 425 0
425 611 -426 0
-425 -611 0
-425 426 0
426 612 -281 0
426 -612 -283 0
-426 -612 283 0
-426 612 281 0
-427 609 428 0
-427 -609 435 0
427 -609 -435 0
427 609 -428 0
-428 610 432 0
-428 -610 429 0
428 -610 -429 0
428 610 -432 0
429 611 -430 0
429 -611 -431 0
-429 -611 431 0
-429 611 430 0
430 612 -304 0
430 -612 -306 0
-430 -612 306 0
-430 612 304 0
431 612 -307 0
431 -612 -310 0
-431 -612 310 0
-431 612 307 0
432 611 -433 0
432 -611 -434 0
-432 -611 434 0
-432 611 433 0
433 612 -296 0
433 -612 -298 0
-433 -612 298 0
-433 612 296 0
434 612 -299 0
434 -612 -303 0
-434 -612 303 0
-434 612 299 0
435 610 -436 0
-435 -610 0
-435 436 0
436 611 -437 0
-436 -611 0
-436 437 0
437 612 -311 0
437 -550 -612 613 0
-437 612 311 0
-437 -612 -613 0
-437 550 -612 0
-438 445 -449 0
-438 445 446 0
-438 -439 445 0
438 -445 0
438 439 -446 449 0
-439 609 7 15 440 0
439 -609 0
439 -440 0
439 -15 0
439 -7 0
-440 597 10 16 441 0
440 -597 0
440 -441 0
440 -16 0
440 -10 0
-441 596 9 13 442 0
441 -596 0
441 -442 0
441 -13 0
441 -9 0
-442 588 589 443 444 0
442 -588 0
442 -444 0
442 -443 0
442 -589 0
-443 590 591 0
443 -590 0
443 -591 0
-444 586 587 0
444 -586 0
444 -587 0
445 -332 351 439 0
-445 332 0
-445 -351 0
-445 -439 0
446 610 -447 0
446 -610 -448 0
-446 -610 448 0
-446 610 447 0
447 611 -420 0
447 -611 -422 0
-447 -611 422 0
-447 611 420 0
448 611 -423 0
448 -611 -426 0
-448 -611 426 0
-448 611 423 0
449 610 -450 0
449 -610 -451 0
-449 -610 451 0
-449 610 450 0
450 -611 -430 0
450 611 -434 0
-450 611 434 0
-450 -611 430 0
451 611 -431 0
451 -611 -437 0
-451 -611 437 0
-451 611 431 0
-452 453 499 506 513 0
452 -513 0
452 -506 0
452 -453 0
452 -499 0
-453 454 486 493 0
-453 454 486 -496 0
453 -454 0
453 -486 0
453 -493 496 0
-454 455 470 0
-454 6 455 -478 0
454 -455 0
454 -470 478 0
454 -6 -470 0
455 6 -456 459 463 0
-455 -463 0
-455 -459 0
-455 -6 0
-455 456 0
-456 609 -610 458 0
-456 609 610 457 0
456 -609 0
456 -610 -458 0
456 610 -457 0
457 611 -232 0
457 -611 -253 0
-457 -611 253 0
-457 611 232 0
458 611 -266 0
458 -611 -272 0
-458 -611 272 0
-458 611 266 0
459 -609 460 0
-459 609 0
-459 -460 0
460 610 -461 0
460 -610 -462 0
-460 -610 462 0
-460 610 461 0
461 611 -275 0
461 -611 -279 0
-461 -611 279 0
-461 611 275 0
462 611 -282 0
-462 -611 0
-462 282 0
-463 609 464 0
-463 -609 467 0
463 -609 -467 0
463 609 -464 0
-464 610 465 0
-464 -610 466 0
464 -610 -466 0
464 610 -465 0
-465 -611 294 0
-465 611 290 0
465 611 -290 0
465 -611 -294 0
466 611 -297 0
466 -611 -302 0
-466 -611 302 0
-466 611 297 0
467 610 -468 0
467 -610 -469 0
-467 -610 469 0
-467 610 468 0
468 611 -305 0
468 -611 -309 0
-468 -611 309 0
-468 611 305 0
469 -550 611 612 613 0
-469 -613 0
-469 -612 0
-469 550 0
-469 -611 0
470 609 6 -471 0
470 -609 6 -446 0
-470 -6 0
-470 -609 446 0
-470 609 471 0
471 610 -472 0
471 -610 -476 0
-471 -610 476 0
-471 610 472 0
472 611 -473 0
472 -611 -475 0
-472 -611 475 0
-472 611 473 0
473 -612 -193 0
473 612 -474 0
-473 612 474 0
-473 -612 193 0
474 613 -392 0
474 -613 -364 0
-474 -613 364 0
-474 613 392 0
475 612 -215 0
475 -612 -233 0
-475 -612 233 0
-475 612 215 0
476 -611 -419 0
476 611 -477 0
-476 611 477 0
-476 -611 419 0
477 612 -243 0
477 -612 -254 0
-477 -612 254 0
-477 612 243 0
-478 -609 449 0
-478 609 479 0
478 -609 -449 0
478 609 -479 0
-479 610 480 0
-479 -610 484 0
479 -610 -484 0
479 610 -480 0
-480 611 481 0
-480 -611 483 0
480 -611 -483 0
480 611 -481 0
-481 612 482 0
-481 -612 288 0
481 -612 -288 0
481 612 -482 0
482 -580 613 0
482 -579 -613 0
-482 580 613 0
-482 579 -613 0
483 612 -289 0
483 -612 -291 0
-483 -612 291 0
-483 612 289 0
484 -611 -433 0
484 611 -485 0
-484 611 485 0
-484 -611 433 0
485 612 -292 0
485 -612 -295 0
-485 -612 295 0
-485 612 292 0
486 6 -487 488 490 0
-486 -490 0
-486 -488 0
-486 -6 0
-486 487 0
-487 609 -610 374 0
-487 609 610 370 0
487 -609 0
487 -610 -374 0
487 610 -370 0
488 -609 489 0
-488 609 0
-488 -489 0
489 610 -375 0
-489 -610 0
-489 375 0
-490 609 491 0
-490 -609 492 0
490 -609 -492 0
490 609 -491 0
-491 -610 385 0
-491 610 382 0
491 610 -382 0
491 -610 -385 0
492 610 -386 0
-492 -610 0
-492 386 0
493 -609 6 -495 0
493 609 6 -494 0
-493 -6 0
-493 -609 495 0
-493 609 494 0
494 -610 -447 0
494 610 -476 0
-494 610 476 0
-494 -610 447 0
495 610 -448 0
-495 -610 0
-495 448 0
496 -609 6 -498 0
496 609 6 -497 0
-496 -6 0
-496 -609 498 0
-496 609 497 0
-497 610 484 0
-497 -610 450 0
497 -610 -450 0
497 610 -484 0
498 610 -451 0
-498 -610 0
-498 451 0
499 6 -500 503 0
-499 -6 0
-499 500 0
-499 -503 0
-500 609 501 0
-500 -609 502 0
500 -609 -502 0
500 609 -501 0
-501 -610 333 0
-501 610 328 0
501 610 -328 0
501 -610 -333 0
502 610 -336 0
-502 -610 0
-502 336 0
-503 609 504 0
-503 -609 505 0
503 -609 -505 0
503 609 -504 0
-504 -610 352 0
-504 610 347 0
504 610 -347 0
504 -610 -352 0
505 610 -355 0
-505 -610 0
-505 355 0
506 6 -507 510 0
506 6 -507 -512 0
-506 -6 0
-506 507 0
-506 -510 512 0
-507 609 508 0
-507 -609 509 0
507 -609 -509 0
507 609 -508 0
-508 -610 461 0
-508 610 458 0
508 610 -458 0
508 -610 -461 0
509 610 -462 0
-509 -610 0
-509 462 0
510 609 -610 0
510 -609 -511 0
510 609 -466 0
-510 -609 511 0
-510 609 610 466 0
511 610 -469 0
-511 -610 0
-511 469 0
512 -610 468 0
-512 610 0
-512 -468 0
-513 -439 0
-513 270 514 0
-513 -300 514 0
513 439 -514 0
513 -270 300 439 0
-514 509 515 520 0
-514 -511 515 520 0
514 -520 0
514 -515 0
514 -509 511 0
-515 516 517 519 0
-515 516 -518 519 0
515 -516 0
515 -519 0
515 -517 518 0
-516 -318 489 0
-516 315 -492 0
-516 315 489 0
-516 -318 -492 0
516 -315 318 0
516 -489 492 0
517 610 -405 0
-517 -610 0
-517 405 0
518 610 -414 0
-518 -610 0
-518 414 0
519 -495 498 0
-519 495 0
-519 -498 0
-520 -185 521 0
-520 158 521 0
520 -521 0
520 -158 185 0
-521 -435 502 0
-521 424 -505 0
-521 424 502 0
-521 -435 -505 0
521 -424 435 0
521 -502 505 0
-522 -439 524 531 0
-522 523 524 531 0
522 -531 0
522 -524 0
522 439 -523 0
-523 -384 403 0
-523 373 -412 0
-523 373 403 0
-523 -384 -412 0
523 -373 384 0
523 -403 412 0
-524 525 527 0
-524 -439 527 0
-524 -526 527 0
524 -527 0
524 439 -525 526 0
525 610 -118 0
525 -610 -159 0
-525 -610 159 0
-525 610 118 0
526 610 -171 0
526 -610 -186 0
-526 -610 186 0
-526 610 171 0
-527 528 -530 0
-527 528 529 0
-527 -439 528 0
527 -528 0
527 439 -529 530 0
528 439 -460 467 0
-528 -439 0
-528 460 0
-528 -467 0
529 610 -421 0
529 -610 -425 0
-529 -610 425 0
-529 610 421 0
530 610 -429 0
530 -610 -436 0
-530 -610 436 0
-530 610 429 0
-531 532 539 -548 0
-531 532 539 546 0
531 -532 0
531 -539 0
531 -546 548 0
532 6 -533 535 536 0
-532 -536 0
-532 -535 0
-532 -6 0
-532 533 0
-533 609 -610 418 0
-533 609 610 534 0
533 -609 0
533 -610 -418 0
533 610 -534 0
534 611 -475 0
534 -611 -477 0
-534 -611 477 0
-534 611 475 0
535 -609 529 0
-535 609 0
-535 -529 0
-536 -609 530 0
-536 609 537 0
536 -609 -530 0
536 609 -537 0
-537 -610 432 0
-537 610 538 0
537 -610 -432 0
537 610 -538 0
-538 -611 485 0
-538 611 483 0
538 611 -483 0
538 -611 -485 0
539 6 -540 542 543 0
-539 -543 0
-539 -542 0
-539 -6 0
-539 540 0
-540 609 -610 19 0
-540 609 610 541 0
540 -609 0
540 -610 -19 0
540 610 -541 0
541 611 -369 0
541 -611 -371 0
-541 -611 371 0
-541 611 369 0
542 -609 525 0
-542 609 0
-542 -525 0
-543 -609 526 0
-543 609 544 0
543 -609 -526 0
543 609 -544 0
-544 -610 178 0
-544 610 545 0
544 -610 -178 0
544 610 -545 0
-545 -611 383 0
-545 611 381 0
545 611 -381 0
545 -611 -383 0
546 609 6 -547 0
546 -609 6 -517 0
-546 -6 0
-546 -609 517 0
-546 609 547 0
547 610 -402 0
547 -610 -404 0
-547 -610 404 0
-547 610 402 0
548 609 6 -549 0
548 -609 6 -518 0
-548 -6 0
-548 609 549 0
-548 -609 518 0
-549 -610 413 0
-549 610 411 0
549 610 -411 0
549 -610 -413 0
-614 0
2 0

